100
1000
200
200
200
199
199
199
199
199
197
197
197
196
196
196
195
195
194
194
194
193
193
192
192
192
189
189
189
189
188
188
187
187
187
186
185
185
184
184
183
182
181
181
180
179
179
179
179
178
178
178
177
177
177
177
175
174
174
174
173
173
173
172
171
171
170
168
168
166
165
164
164
162
161
161
160
160
159
159
159
158
158
157
156
156
155
155
155
155
154
153
153
153
152
152
151
151
151
150
150
150
